500
3
12, 47, 38, 11, 9, 2, 16, 84, 90, 67, 78, 22, 1, 5, 71, 33, 19, 23, 55, 61
33, 11, 69, 2, 45, 59, 88, 20, 70, 65, 92, 2, 7, 9, 34, 15, 28, 62, 13, 8
1, 2, 3, 3, 2, 2, 1, 1, 3, 2, 1, 1, 2, 2, 1, 3, 3, 2, 1, 3